# Solution for model GasLib-40
# Objective value = 1.3098421614297674e+01
loadshed[innode_1] 0
loadshed[innode_2] 0
loadshed[innode_3] 0
loadshed[innode_4] 0
loadshed[innode_5] 0
loadshed[innode_6] 0
loadshed[innode_7] 0
loadshed[innode_8] 0
loadshed[source_1] -2.0555632606592877e-01
loadshed[source_2] -3.6094566810741080e-02
loadshed[source_3] 3.2450495448255468e-01
loadshed[sink_1] 0
loadshed[sink_2] 0
loadshed[sink_3] 0
loadshed[sink_4] 0
loadshed[sink_5] 0
loadshed[sink_6] 0
loadshed[sink_7] 0
loadshed[sink_8] 0
loadshed[sink_9] 0
loadshed[sink_10] 0
loadshed[sink_11] 0
loadshed[sink_12] 8.0092259552393419e-01
loadshed[sink_13] 0
loadshed[sink_14] 0
loadshed[sink_15] 0
loadshed[sink_16] 0
loadshed[sink_17] 0
loadshed[sink_18] 0
loadshed[sink_19] 0
loadshed[sink_20] 0
loadshed[sink_21] 0
loadshed[sink_22] 0
loadshed[sink_23] 0
loadshed[sink_24] 0
loadshed[sink_25] 0
loadshed[sink_26] 0
loadshed[sink_27] 0
loadshed[sink_28] 0
loadshed[sink_29] 0
flow[source_1,sink_3] 1.9058673446451991e+02
flow[innode_1,sink_16] 1.6354166666666970e+01
flow[innode_6,sink_13] 7.6899672833008728e+00
flow[sink_13,sink_14] -8.6641993833657942e+00
flow[sink_14,sink_10] -2.5018366050032455e+01
flow[sink_25,sink_26] 1.8141875771149176e+02
flow[sink_26,sink_9] 1.5044324505236983e+02
flow[sink_9,sink_18] 1.3408907838570317e+02
flow[sink_26,sink_4] 1.4621345992455872e+01
flow[sink_4,sink_20] -3.4441154007545720e+01
flow[sink_18,sink_6] 1.1773491171903652e+02
flow[sink_25,innode_8] -1.5787840113118355e+02
flow[sink_6,sink_7] 6.8672411719035608e+01
flow[sink_6,sink_22] 3.2708333333333641e+01
flow[sink_7,sink_24] 3.5964078385702329e+01
flow[sink_22,sink_1] 1.6354166666666970e+01
flow[sink_24,sink_21] 1.9609911719035662e+01
flow[sink_21,sink_12] 3.2557450523689928e+00
flow[sink_7,sink_5] 1.6354166666667368e+01
flow[sink_5,sink_17] 0
flow[sink_17,sink_4] -3.2708333333335005e+01
flow[sink_17,sink_8] 1.6354166666668334e+01
flow[sink_3,sink_23] 16.3541666666697
flow[sink_8,sink_20] 0
flow[sink_25,sink_20] 5.0795320674212689e+01
flow[sink_25,sink_15] -9.8379811204488490e+01
flow[sink_15,sink_29] -6.3828170138538376e+01
flow[sink_29,sink_28] 1.6354166666667879e+01
flow[sink_29,sink_2] 6.7259974399283465e+01
flow[sink_2,sink_15] 5.0905807732616793e+01
flow[sink_29,innode_7] -1.6379647787115638e+02
flow[innode_4,sink_19] 40.8810184515313
flow[sink_19,innode_3] 0
flow[innode_4,innode_5] 6.5908180931834266e+01
flow[sink_27,innode_5] -6.5908180931834266e+01
flow[sink_27,sink_19] 4.9554014265167595e+01
flow[sink_10,sink_11] 3.2708333333333641e+01
flow[sink_10,innode_2] -7.4080866050032810e+01
flow[sink_10,innode_3] 0
flow[innode_6,sink_25] -7.6899672833008728e+00
flow[sink_11,innode_1] 1.6354166666666970e+01
flow[sink_19,innode_2] 7.4080866050032810e+01
flow[source_3,innode_4] 1.0678919938336557e+02
flow[source_2,innode_7] 1.6379647787115638e+02
flow[sink_3,innode_8] 1.5787840113118355e+02
pressure[innode_1] 7.5289874734754491e+01
pressure[innode_2] 7.9357055777099760e+01
pressure[innode_3] 7.9357055777099760e+01
pressure[innode_4] 81.01325
pressure[innode_5] 8.0967914877805939e+01
pressure[innode_6] 7.4285130639326880e+01
pressure[innode_7] 81.01325
pressure[innode_8] 8.0376191353456633e+01
pressure[source_1] 81.01325
pressure[source_2] 81.01325
pressure[source_3] 81.01325
pressure[sink_1] 4.2406804768956960e+01
pressure[sink_2] 7.4928564829892437e+01
pressure[sink_3] 8.0376191353456633e+01
pressure[sink_4] 5.9648918303820992e+01
pressure[sink_5] 3.6763603829802058e+01
pressure[sink_6] 4.4507882379344331e+01
pressure[sink_7] 4.3565173856696774e+01
pressure[sink_8] 5.7781828460802608e+01
pressure[sink_9] 5.2503497575323138e+01
pressure[sink_10] 7.5441576042358037e+01
pressure[sink_11] 7.5289874734754491e+01
pressure[sink_12] 1.01325
pressure[sink_13] 7.4242737134806958e+01
pressure[sink_14] 74.2582424576301
pressure[sink_15] 7.4762368587104760e+01
pressure[sink_16] 7.4268224899936811e+01
pressure[sink_17] 5.8398913656216230e+01
pressure[sink_18] 4.7651755065141984e+01
pressure[sink_19] 7.9357055777099760e+01
pressure[sink_20] 6.2175681504440526e+01
pressure[sink_21] 2.1718222772536828e+00
pressure[sink_22] 4.3470573911311966e+01
pressure[sink_23] 8.0211473341796847e+01
pressure[sink_24] 2.3889838297610826e+00
pressure[sink_25] 7.4285130639326880e+01
pressure[sink_26] 6.1507914075034577e+01
pressure[sink_27] 8.0420998761295238e+01
pressure[sink_28] 7.6337053615294238e+01
pressure[sink_29] 7.6632335888911413e+01
interdiction[source_1,sink_3] 0
interdiction[innode_1,sink_16] 0
interdiction[innode_6,sink_13] 0
interdiction[sink_13,sink_14] 0
interdiction[sink_14,sink_10] 0
interdiction[sink_25,sink_26] 0
interdiction[sink_26,sink_9] 0
interdiction[sink_9,sink_18] 0
interdiction[sink_26,sink_4] 0
interdiction[sink_4,sink_20] 0
interdiction[sink_18,sink_6] 0
interdiction[sink_25,innode_8] 0
interdiction[sink_6,sink_7] 0
interdiction[sink_6,sink_22] 0
interdiction[sink_7,sink_24] 0
interdiction[sink_22,sink_1] 0
interdiction[sink_24,sink_21] 0
interdiction[sink_21,sink_12] 0
interdiction[sink_7,sink_5] 0
interdiction[sink_5,sink_17] 1
interdiction[sink_17,sink_4] 0
interdiction[sink_17,sink_8] 0
interdiction[sink_3,sink_23] 0
interdiction[sink_8,sink_20] 1
interdiction[sink_25,sink_20] 0
interdiction[sink_25,sink_15] 0
interdiction[sink_15,sink_29] 0
interdiction[sink_29,sink_28] 0
interdiction[sink_29,sink_2] 0
interdiction[sink_2,sink_15] 0
interdiction[sink_29,innode_7] 0
interdiction[innode_4,sink_19] 0
interdiction[sink_19,innode_3] 0
interdiction[innode_4,innode_5] 0
interdiction[sink_27,innode_5] 0
interdiction[sink_27,sink_19] 0
interdiction[sink_10,sink_11] 0
interdiction[sink_10,innode_2] 0
interdiction[sink_10,innode_3] 1
interdiction[innode_6,sink_25] 0
interdiction[sink_11,innode_1] 0
interdiction[sink_19,innode_2] 0
interdiction[source_3,innode_4] 0
interdiction[source_2,innode_7] 0
interdiction[sink_3,innode_8] 0
WCcheckFlow[source_1,sink_3] 39
WCcheckFlow[innode_1,sink_16] 1
WCcheckFlow[innode_6,sink_13] 13
WCcheckFlow[sink_13,sink_14] 12
WCcheckFlow[sink_14,sink_10] 11
WCcheckFlow[sink_25,sink_26] 15
WCcheckFlow[sink_26,sink_9] 10
WCcheckFlow[sink_9,sink_18] 9
WCcheckFlow[sink_26,sink_4] 4
WCcheckFlow[sink_4,sink_20] 1
WCcheckFlow[sink_18,sink_6] 8
WCcheckFlow[sink_25,innode_8] -36
WCcheckFlow[sink_6,sink_7] 5
WCcheckFlow[sink_6,sink_22] 2
WCcheckFlow[sink_7,sink_24] 3
WCcheckFlow[sink_22,sink_1] 1
WCcheckFlow[sink_24,sink_21] 2
WCcheckFlow[sink_21,sink_12] 1
WCcheckFlow[sink_7,sink_5] 1
WCcheckFlow[sink_5,sink_17] 0
WCcheckFlow[sink_17,sink_4] -2
WCcheckFlow[sink_17,sink_8] 1
WCcheckFlow[sink_3,sink_23] 1
WCcheckFlow[sink_8,sink_20] 0
WCcheckFlow[sink_25,sink_20] 0
WCcheckFlow[sink_25,sink_15] 6
WCcheckFlow[sink_15,sink_29] 5
WCcheckFlow[sink_29,sink_28] 1
WCcheckFlow[sink_29,sink_2] 1
WCcheckFlow[sink_2,sink_15] 0
WCcheckFlow[sink_29,innode_7] 2
WCcheckFlow[innode_4,sink_19] -4
WCcheckFlow[sink_19,innode_3] 1
WCcheckFlow[innode_4,innode_5] 2
WCcheckFlow[sink_27,innode_5] -1
WCcheckFlow[sink_27,sink_19] 0
WCcheckFlow[sink_10,sink_11] 3
WCcheckFlow[sink_10,innode_2] 7
WCcheckFlow[sink_10,innode_3] 0
WCcheckFlow[innode_6,sink_25] -14
WCcheckFlow[sink_11,innode_1] 2
WCcheckFlow[sink_19,innode_2] -6
WCcheckFlow[source_3,innode_4] -1
WCcheckFlow[source_2,innode_7] -1
WCcheckFlow[sink_3,innode_8] 37
